942909
4,2,63,1,26,34,41,96,90,43,54,71,67,98,79,12,62,92,61,30,59,31,73,69,36,47,0,32,8,56,46,65,3,6,38,13,91,83,21,72,24,77,50,78,28,39,93,25,16,11,18,58,89,23,42,51,64,53,97,22,10,27,45,70,33,66,81,57,15,60,14,82,87,49,35,37,75,86,44,85,80,94,19,20,95,29,76,9,55,17,68,74,5,48,40,52,7,88,84